
Gurobi 8.1.1 (win64) logging started 11/25/19 15:50:33

Changed value of parameter LogFile to logs/full/qp/full-06-15-2.log
   Prev: gurobi.log  Default: 
Changed value of parameter LogToConsole to 0
   Prev: 1  Min: 0  Max: 1  Default: 1
Changed value of parameter TimeLimit to 3600.0
   Prev: 1e+100  Min: 0.0  Max: 1e+100  Default: 1e+100
Optimize a model with 1 rows, 339 columns and 1 nonzeros
Model has 15 quadratic constraints
Variable types: 0 continuous, 339 integer (339 binary)
Coefficient statistics:
  Matrix range     [1e+00, 1e+00]
  QMatrix range    [1e+00, 1e+00]
  Objective range  [1e+00, 1e+00]
  Bounds range     [1e+00, 1e+00]
  RHS range        [1e+00, 1e+00]
  QRHS range       [1e+00, 1e+00]
Found heuristic solution: objective 339.0000000
Presolve removed 1 rows and 1 columns
Presolve time: 0.01s
Presolved: 0 rows, 338 columns, 0 nonzeros
Variable types: 0 continuous, 338 integer (338 binary)

Root relaxation: objective 1.000000e+00, 0 iterations, 0.00 seconds

    Nodes    |    Current Node    |     Objective Bounds      |     Work
 Expl Unexpl |  Obj  Depth IntInf | Incumbent    BestBd   Gap | It/Node Time

     0     0    2.00000    0    2  339.00000    2.00000  99.4%     -    0s
H    0     0                      12.0000000    2.00000  83.3%     -    0s
     0     0    2.00000    0    2   12.00000    2.00000  83.3%     -    0s
H    0     2                      10.0000000    2.00000  80.0%     -    0s
     0     2    2.00000    0    2   10.00000    2.00000  80.0%     -    0s
   306   134    2.00000   67    2   10.00000    2.00000  80.0%   1.3    5s
H  392   174                       7.0000000    2.00000  71.4%   1.3    6s
   497   227    2.00000  117    2    7.00000    2.00000  71.4%   1.3   10s
   616   298    2.00000  150    -    7.00000    2.00000  71.4%   1.3   15s
   766   360    2.00000  184    2    7.00000    2.00000  71.4%   1.3   20s
   873   415    2.00000  210    -    7.00000    2.00000  71.4%   1.3   25s
   956   442    2.00000  229    2    7.00000    2.00000  71.4%   1.3   30s
  1075   450    4.00000  263    -    7.00000    2.00000  71.4%   1.3   35s
  1187   486    6.00000  272    -    7.00000    2.00000  71.4%   1.3   40s
  1258   499    6.00000  272    -    7.00000    2.00000  71.4%   1.3   47s
  1306   481    6.00000  272    -    7.00000    2.00000  71.4%   1.3   52s
  1354   514    3.00000   45    2    7.00000    2.00000  71.4%   1.3   55s
  1378   516    6.00000  272    -    7.00000    3.00000  57.1%   1.3   66s
  1510   495    6.00000  272    -    7.00000    3.00000  57.1%   1.3   77s
  1669   583    6.00000  272    -    7.00000    3.00000  57.1%   1.3   88s
  1781   620    3.00000   88    2    7.00000    3.00000  57.1%   1.3  101s
  1922   681    6.00000  272    -    7.00000    3.00000  57.1%   1.3  111s
  2025   730    6.00000  272    -    7.00000    3.00000  57.1%   1.3  122s
  2125   765    6.00000  272    -    7.00000    3.00000  57.1%   1.3  131s
  2184   796    6.00000  272    -    7.00000    3.00000  57.1%   1.3  144s
  2272   814    4.00000  105    2    7.00000    3.00000  57.1%   1.3  158s
  2392   855    4.00000  253    2    7.00000    3.00000  57.1%   1.3  173s
  2470   884    4.00000  255    2    7.00000    3.00000  57.1%   1.3  186s
  2592   930    4.00000    7    2    7.00000    3.00000  57.1%   1.3  202s
  2698   978    4.00000  145    -    7.00000    3.00000  57.1%   1.3  217s
  2835  1055    4.00000  200    2    7.00000    3.00000  57.1%   1.3  237s
  2969  1116    3.00000  233    2    7.00000    3.00000  57.1%   1.3  255s
  3084  1195    3.00000  234    2    7.00000    3.00000  57.1%   1.3  272s
  3210  1247    3.00000   66    2    7.00000    3.00000  57.1%   1.3  292s
  3364  1323    3.00000   64    -    7.00000    3.00000  57.1%   1.3  312s
  3481  1363    3.00000  235    2    7.00000    3.00000  57.1%   1.3  332s
  3648  1567    4.00000  160    2    7.00000    3.00000  57.1%   1.3  438s
  3650  1568    4.00000   65 4849    7.00000    3.00000  57.1%   1.3  543s
  3652  1571    4.00000  138    2    7.00000    3.00000  57.1%  13.1 1197s
  3654  1572    3.00000  199 5189    7.00000    3.00000  57.1%  13.1 1219s
  3655  1573    4.00000   96 4742    7.00000    3.00000  57.1%  13.0 1230s
  3656  1574    4.00000  158 3886    7.00000    3.00000  57.1%  13.0 1236s
  3658  1575    4.00000   66 3815    7.00000    3.00000  57.1%  13.0 1281s
  3659  1576    3.00000   55 3579    7.00000    3.00000  57.1%  13.0 1321s
  3661  1577    3.00000   51 3527    7.00000    3.00000  57.1%  13.0 1371s
  3662  1578    4.00000   76 3364    7.00000    3.00000  57.1%  13.0 1420s
  3663  1578    3.00000   48 3436    7.00000    3.00000  57.1%  13.0 1469s
  3664  1579    4.00000  260 3365    7.00000    3.00000  57.1%  13.0 1500s
  3665  1580    5.00000  262 3264    7.00000    3.00000  57.1%  13.0 1548s
  3666  1580    5.50000  264 3281    7.00000    3.00000  57.1%  13.0 1595s
  3667  1581    4.00000   47 3281    7.00000    3.00000  57.1%  13.0 1626s
  3668  1582    4.00000  194 3281    7.00000    3.00000  57.1%  13.0 1663s
  3669  1585    3.00000   28 2712    7.00000    3.00000  57.1%   182 1774s
  3671  1587    3.00000   29 2677    7.00000    3.00000  57.1%   191 1790s
  3673  1588    3.24337   29 4340    7.00000    3.00000  57.1%   204 1818s
  3675  1589    3.00000   30 2487    7.00000    3.00000  57.1%   213 1834s
  3677  1591    3.23734   30 3384    7.00000    3.00000  57.1%   220 1855s
  3679  1593    3.00000   31 2457    7.00000    3.00000  57.1%   225 1882s
  3682  1593    3.18159   31 4821    7.00000    3.00000  57.1%   239 1904s
  3685  1593    3.00000   32 2405    7.00000    3.00000  57.1%   246 1928s
  3688  1597    3.20754   32 4553    7.00000    3.00000  57.1%   262 1946s
  3691  1598    3.00000   33 2245    7.00000    3.00000  57.1%   266 1977s
  3695  1601    3.00000   34 2231    7.00000    3.00000  57.1%   279 2006s
  3699  1603    3.00000   35 2163    7.00000    3.00000  57.1%   290 2031s
  3703  1606    3.00000   36 2097    7.00000    3.00000  57.1%   305 2062s
  3707  1609    3.00000   37 1993    7.00000    3.00000  57.1%   322 2088s
  3711  1611    3.00000   38 1871    7.00000    3.00000  57.1%   334 2115s
  3715  1614    3.00000   39 1792    7.00000    3.00000  57.1%   347 2140s
  3719  1616    3.00000   40 1726    7.00000    3.00000  57.1%   357 2171s
  3724  1621    3.00000   41 1648    7.00000    3.00000  57.1%   368 2204s
  3727  1622    3.00000   42 1619    7.00000    3.00000  57.1%   378 2233s
  3733  1626    3.00000   43 1400    7.00000    3.00000  57.1%   391 2251s
  3739  1630    3.00000   44 1429    7.00000    3.00000  57.1%   404 2272s
  3745  1634    3.00000   45 1378    7.00000    3.00000  57.1%   418 2290s
  3749  1637    3.00000   46 1280    7.00000    3.00000  57.1%   431 2316s
  3753  1637    3.00000   47 1202    7.00000    3.00000  57.1%   443 2332s
  3759  1645    3.22500   48 4277    7.00000    3.00000  57.1%   460 2363s
  3765  1647    3.00000   50 1118    7.00000    3.00000  57.1%   474 2389s
  3771  1651    3.00000   51  990    7.00000    3.00000  57.1%   488 2420s
  3777  1654    3.00000   53 1002    7.00000    3.00000  57.1%   507 2452s
  3786  1662    3.00000   55  981    7.00000    3.00000  57.1%   523 2491s
  3795  1667    3.00000   57  952    7.00000    3.00000  57.1%   540 2538s
  3805  1673    3.00000   59 2686    7.00000    3.00000  57.1%   561 2574s
  3814  1681    3.27802   60 4266    7.00000    3.00000  57.1%   578 2618s
  3823  1686    3.00000   62 2447    7.00000    3.00000  57.1%   591 2651s
  3833  1693    3.00000   64 2172    7.00000    3.00000  57.1%   608 2690s
  3843  1698    3.00000   66 2061    7.00000    3.00000  57.1%   626 2720s
  3854  1708    3.00000   68 2139    7.00000    3.00000  57.1%   642 2750s
  3863  1713    3.00000   70 2134    7.00000    3.00000  57.1%   659 2788s
  3875  1721    3.00000   72 2132    7.00000    3.00000  57.1%   675 2824s
  3889  1730    3.00000   74 2119    7.00000    3.00000  57.1%   692 2858s
  3905  1743    3.00000   76 2138    7.00000    3.00000  57.1%   709 2898s
  3923  1753    3.00000   78 2052    7.00000    3.00000  57.1%   725 2941s
  3937  1762    3.00000   81 1908    7.00000    3.00000  57.1%   747 2981s
  3949  1770    3.00000   83 1886    7.00000    3.00000  57.1%   764 3031s
  3963  1778    3.00000   86 1712    7.00000    3.00000  57.1%   789 3074s
  3976  1789    3.00000   88 1715    7.00000    3.00000  57.1%   808 3123s
  3991  1798    3.00000   91 1641    7.00000    3.00000  57.1%   830 3168s
  4003  1806    3.00000   93 1639    7.00000    3.00000  57.1%   843 3225s
  4027  1822    3.00000   97 1573    7.00000    3.00000  57.1%   868 3270s
  4057  1844    3.00000  100 1566    7.00000    3.00000  57.1%   890 3322s
  4083  1859    3.00000  103 1507    7.00000    3.00000  57.1%   919 3369s
  4109  1876    3.00000  106 1800    7.00000    3.00000  57.1%   950 3422s
  4136  1898    3.00000  109 1643    7.00000    3.00000  57.1%   981 3476s
  4163  1913    3.00000  112 1614    7.00000    3.00000  57.1%  1013 3533s
  4195  1934    3.00000  116 1523    7.00000    3.00000  57.1%  1048 3599s

Cutting planes:
  Gomory: 1
  Zero half: 36

Explored 4225 nodes (4596944 simplex iterations) in 3600.03 seconds
Thread count was 4 (of 4 available processors)

Solution count 4: 7 10 12 339 

Time limit reached
Best objective 7.000000000000e+00, best bound 3.000000000000e+00, gap 57.1429%
Warning: Q constraint 0 doesn't have a name
